1973795
0,59,29,7,14,175,138,181,78,197,196,212,103,157,221,189,65,81,11,223,202,98,218,127,140,177,225,60,130,142,220,51,167,203,163,12,226,18,43,164,110,222,158,159,112,173,94,199,28,75,45,155,210,144,106,95,90,100,4,224,193,192,190,50,70,161,134,156,38,66,206,126,117,82,73,139,228,178,195,67,165,183,8,169,89,185,170,149,145,102,3,37,87,141,32,216,20,128,152,227,108,148,41,125,109,69,72,151,188,137,207,22,24,56,57,171,92,166,44,1,179,76,215,174,17,91,99,52,53,55,147,123,58,79,131,211,229,10,9,83,118,13,64,213,219,136,182,19,209,6,62,31,48,42,30,198,97,217,121,85,153,113,205,180,135,194,105,104,201,172,122,187,208,200,124,119,23,40,120,84,114,5,186,16,63,133,47,46,96,184,146,15,21,214,74,88,143,49,27,34,35,36,115,25,33,86,93,107,129,150,160,191,204,77,61,39,101,80,26,168,54,111,154,132,2,71,162,176,68,116,0